(declare-fun temp187_1 () (_ BitVec 64))
(declare-fun temp187_2 () (_ BitVec 64))
(declare-fun var70396 () (_ BitVec 64))
(declare-fun k!0 () Bool)
(declare-fun ARGNAME_x_NAMEEND_DIM () (_ BitVec 64))
(declare-fun temp187_3 () (_ BitVec 64))
(declare-fun var65762 () (_ BitVec 64))
(declare-fun temp187_4 () (_ BitVec 64))
(declare-fun temp187_5 () (_ BitVec 64))
(declare-fun ARGNAME_x_NAMEEND_DIMSIZE () (Array (_ BitVec 64) (_ BitVec 64)))
(declare-fun temp187_6 () (_ BitVec 64))
(declare-fun temp187_7 () (_ BitVec 64))
(declare-fun temp187_8 () (_ BitVec 64))
(declare-fun temp187_9 () (_ BitVec 64))
(declare-fun temp187_10 () (_ BitVec 64))
(declare-fun temp187_11 () (_ BitVec 64))
(declare-fun temp187_12 () (_ BitVec 64))
(declare-fun temp187_13 () (_ BitVec 64))
(declare-fun temp187_14 () (_ BitVec 64))
(declare-fun temp187_15 () (_ BitVec 64))
(declare-fun temp187_16 () (_ BitVec 64))
(declare-fun temp187_17 () (_ BitVec 64))
(declare-fun temp187_18 () (_ BitVec 64))
(declare-fun temp187_19 () (_ BitVec 64))
(declare-fun temp187_20 () (_ BitVec 64))
(declare-fun temp187_21 () (_ BitVec 64))
(declare-fun temp187_22 () (_ BitVec 64))
(declare-fun temp187_23 () (_ BitVec 64))
(declare-fun temp187_24 () (_ BitVec 64))
(declare-fun var70398 () (_ BitVec 64))
(declare-fun temp187_25 () (_ BitVec 64))
(declare-fun temp187_26 () (_ BitVec 64))
(declare-fun ARGNAME_y_NAMEEND_DIMSIZE () (Array (_ BitVec 64) (_ BitVec 64)))
(declare-fun temp187_27 () (_ BitVec 64))
(declare-fun temp187_28 () (_ BitVec 64))
(declare-fun temp187_29 () (_ BitVec 64))
(declare-fun temp187_30 () (_ BitVec 64))
(declare-fun temp187_31 () (_ BitVec 64))
(declare-fun temp187_32 () (_ BitVec 64))
(declare-fun temp187_33 () (_ BitVec 64))
(declare-fun temp187_34 () (_ BitVec 64))
(declare-fun temp187_35 () (_ BitVec 64))
(declare-fun temp187_36 () (_ BitVec 64))
(declare-fun temp187_37 () (_ BitVec 64))
(declare-fun temp187_38 () (_ BitVec 64))
(declare-fun temp187_39 () (_ BitVec 64))
(declare-fun temp187_40 () (_ BitVec 64))
(declare-fun temp187_41 () (_ BitVec 64))
(declare-fun temp187_42 () (_ BitVec 64))
(declare-fun temp187_43 () (_ BitVec 64))
(declare-fun var70374 () (_ BitVec 64))
(declare-fun ARGNAME_y_NAMEEND_DIM () (_ BitVec 64))
(declare-fun temp187_44 () (_ BitVec 64))
(declare-fun temp187_45 () (_ BitVec 64))
(declare-fun var70399 () (_ BitVec 64))
(declare-fun var70400 () (_ BitVec 64))
(declare-fun temp187_46 () (_ BitVec 64))
(declare-fun temp187_48 () (_ BitVec 64))
(declare-fun temp187_47 () (_ BitVec 64))
(declare-fun temp187_49 () (_ BitVec 64))
(declare-fun var526834 () (_ BitVec 64))
(declare-fun var526836 () (_ BitVec 64))
(declare-fun var592572 () (_ BitVec 64))
(declare-fun var658116 () (_ BitVec 64))
(declare-fun temp187_50 () (_ BitVec 64))
(declare-fun var920184 () (_ BitVec 64))
(declare-fun temp187_51 () (_ BitVec 64))
(declare-fun temp187_52 () (_ BitVec 64))
(declare-fun temp187_53 () (_ BitVec 64))
(declare-fun temp187_54 () (_ BitVec 64))
(declare-fun var70423 () (_ BitVec 64))
(declare-fun temp187_56 () (_ BitVec 64))
(declare-fun temp187_55 () (_ BitVec 64))
(declare-fun temp187_58 () (_ BitVec 64))
(declare-fun temp187_57 () (_ BitVec 64))
(declare-fun temp187_59 () (_ BitVec 64))
(declare-fun var2032934 () (_ BitVec 64))
(declare-fun temp187_60 () (_ BitVec 64))
(declare-fun var2032968 () (_ BitVec 64))
(declare-fun temp187_61 () (_ BitVec 64))
(declare-fun temp187_63 () (_ BitVec 64))
(declare-fun temp187_62 () (_ BitVec 64))
(declare-fun temp187_64 () (_ BitVec 64))
(declare-fun var2426150 () (_ BitVec 64))
(declare-fun temp187_65 () (_ BitVec 64))
(declare-fun var2426184 () (_ BitVec 64))
(declare-fun temp187_66 () (_ BitVec 64))
(assert (= temp187_1 #x0000000000000001))
(assert (= var70396
   (ite (= ARGNAME_x_NAMEEND_DIM temp187_1)
        #x0000000000000001
        #x0000000000000000)))
(assert (= temp187_2 #x0000000000000001))
(assert (= var70396 temp187_2))
(assert (= temp187_3 #x0000000000000000))
(assert (= var65762 temp187_3))
(assert (= temp187_4 #x0000000000000000))
(assert (= temp187_5 temp187_4))
(assert (= temp187_6 (select ARGNAME_x_NAMEEND_DIMSIZE temp187_5)))
(assert (= temp187_7 #x0000000000000001))
(assert (= temp187_8 temp187_7))
(assert (= temp187_9 (select ARGNAME_x_NAMEEND_DIMSIZE temp187_8)))
(assert (= temp187_10 #x0000000000000002))
(assert (= temp187_11 temp187_10))
(assert (= temp187_12 (select ARGNAME_x_NAMEEND_DIMSIZE temp187_11)))
(assert (= temp187_13 #x0000000000000003))
(assert (= temp187_14 temp187_13))
(assert (= temp187_15 (select ARGNAME_x_NAMEEND_DIMSIZE temp187_14)))
(assert (= temp187_16 #x0000000000000004))
(assert (= temp187_17 temp187_16))
(assert (= temp187_18 (select ARGNAME_x_NAMEEND_DIMSIZE temp187_17)))
(assert (= temp187_19 #x0000000000000005))
(assert (= temp187_20 temp187_19))
(assert (= temp187_21 (select ARGNAME_x_NAMEEND_DIMSIZE temp187_20)))
(assert (= temp187_22 #x0000000000000000))
(assert (= temp187_23
   (ite (bvslt var65762 temp187_22)
        (bvadd ARGNAME_x_NAMEEND_DIM var65762)
        var65762)))
(assert (= temp187_24 (select ARGNAME_x_NAMEEND_DIMSIZE temp187_23)))
(assert (= var70398 temp187_24))
(assert (bvslt (ite (bvslt var65762 temp187_22)
            (bvadd ARGNAME_x_NAMEEND_DIM var65762)
            var65762)
       ARGNAME_x_NAMEEND_DIM))
(assert (= temp187_25 #x0000000000000000))
(assert (= temp187_26 temp187_25))
(assert (= temp187_27 (select ARGNAME_y_NAMEEND_DIMSIZE temp187_26)))
(assert (= temp187_28 #x0000000000000001))
(assert (= temp187_29 temp187_28))
(assert (= temp187_30 (select ARGNAME_y_NAMEEND_DIMSIZE temp187_29)))
(assert (= temp187_31 #x0000000000000002))
(assert (= temp187_32 temp187_31))
(assert (= temp187_33 (select ARGNAME_y_NAMEEND_DIMSIZE temp187_32)))
(assert (= temp187_34 #x0000000000000003))
(assert (= temp187_35 temp187_34))
(assert (= temp187_36 (select ARGNAME_y_NAMEEND_DIMSIZE temp187_35)))
(assert (= temp187_37 #x0000000000000004))
(assert (= temp187_38 temp187_37))
(assert (= temp187_39 (select ARGNAME_y_NAMEEND_DIMSIZE temp187_38)))
(assert (= temp187_40 #x0000000000000005))
(assert (= temp187_41 temp187_40))
(assert (= temp187_42 (select ARGNAME_y_NAMEEND_DIMSIZE temp187_41)))
(assert (= temp187_43 #x0000000000000000))
(assert (= temp187_44
   (ite (bvslt var70374 temp187_43)
        (bvadd ARGNAME_y_NAMEEND_DIM var70374)
        var70374)))
(assert (= temp187_45 (select ARGNAME_y_NAMEEND_DIMSIZE temp187_44)))
(assert (= var70399 temp187_45))
(assert (bvslt (ite (bvslt var70374 temp187_43)
            (bvadd ARGNAME_y_NAMEEND_DIM var70374)
            var70374)
       ARGNAME_y_NAMEEND_DIM))
(assert (= var70400 (ite (= var70398 var70399) #x0000000000000001 #x0000000000000000)))
(assert (= temp187_46 #x0000000000000001))
(assert (= var70400 temp187_46))
(assert (= temp187_48 #x0000000000000001))
(assert (= temp187_47 temp187_48))
(assert (= temp187_49 #x0000000000000005))
(assert (= var526834 temp187_49))
(assert (= var526836 var526834))
(assert (= var592572 var526836))
(assert (= var658116 var592572))
(assert (= temp187_50 #x0000000000000000))
(assert (= var920184 temp187_50))
(assert (= temp187_51 #x0000000000000000))
(assert (= var65762 temp187_51))
(assert (= temp187_52 #x0000000000000000))
(assert (= temp187_53
   (ite (bvslt var65762 temp187_52)
        (bvadd ARGNAME_x_NAMEEND_DIM var65762)
        var65762)))
(assert (= temp187_54 (select ARGNAME_x_NAMEEND_DIMSIZE temp187_53)))
(assert (= var70423 temp187_54))
(assert (bvslt (ite (bvslt var65762 temp187_52)
            (bvadd ARGNAME_x_NAMEEND_DIM var65762)
            var65762)
       ARGNAME_x_NAMEEND_DIM))
(assert (= temp187_56 #x0000000000000000))
(assert (= temp187_55 temp187_56))
(assert (= temp187_58 #xffffffffffffffff))
(assert (= temp187_57 temp187_58))
(assert (= temp187_59 #x0000000000000001))
(assert (= var2032934 temp187_59))
(assert (= temp187_60 #x0000000000000000))
(assert (= var2032968 temp187_60))
(assert (= temp187_61 #x0000000000000000))
(assert (= var2032968 temp187_61))
(assert (= temp187_63 #x0000000000000001))
(assert (= temp187_62 temp187_63))
(assert (= temp187_64 #x0000000000000001))
(assert (= var2426150 temp187_64))
(assert (= temp187_65 #x0000000000000000))
(assert (= var2426184 temp187_65))
(assert (= temp187_66 #x0000000000000000))
(assert (= var2426184 temp187_66))
(model-add temp187_1 () (_ BitVec 64) #x0000000000000001)
(model-add temp187_2 () (_ BitVec 64) #x0000000000000001)
(model-add var70396 () (_ BitVec 64) #x0000000000000001)
(model-del k!0)
(model-add ARGNAME_x_NAMEEND_DIM
           ()
           (_ BitVec 64)
           (ite k!0 #x0000000000000001 (bvnot #x0000000000000001)))



